p cnf 129 1495
-1 -4 -7 0
-2 -5 -8 0
-3 -6 -9 0
-1 -7 -10 0
-2 -8 -11 0
-3 -9 -12 0
-1 -10 -13 0
-2 -11 -14 0
-3 -12 -15 0
-1 -13 -16 0
-2 -14 -17 0
-3 -15 -18 0
-1 -16 -19 0
-2 -17 -20 0
-3 -18 -21 0
-1 -19 -22 0
-2 -20 -23 0
-3 -21 -24 0
-1 -22 -25 0
-2 -23 -26 0
-3 -24 -27 0
-1 -25 -28 0
-2 -26 -29 0
-3 -27 -30 0
-1 -28 -31 0
-2 -29 -32 0
-3 -30 -33 0
-1 -31 -34 0
-2 -32 -35 0
-3 -33 -36 0
-1 -34 -37 0
-2 -35 -38 0
-3 -36 -39 0
-1 -37 -40 0
-2 -38 -41 0
-3 -39 -42 0
-1 -40 -43 0
-2 -41 -44 0
-3 -42 -45 0
-1 -43 -46 0
-2 -44 -47 0
-3 -45 -48 0
-1 -46 -49 0
-2 -47 -50 0
-3 -48 -51 0
-1 -49 -52 0
-2 -50 -53 0
-3 -51 -54 0
-1 -52 -55 0
-2 -53 -56 0
-3 -54 -57 0
-1 -55 -58 0
-2 -56 -59 0
-3 -57 -60 0
-1 -58 -61 0
-2 -59 -62 0
-3 -60 -63 0
-1 -61 -64 0
-2 -62 -65 0
-3 -63 -66 0
-1 -64 -67 0
-2 -65 -68 0
-3 -66 -69 0
-1 -67 -70 0
-2 -68 -71 0
-3 -69 -72 0
-1 -70 -73 0
-2 -71 -74 0
-3 -72 -75 0
-1 -73 -76 0
-2 -74 -77 0
-3 -75 -78 0
-1 -76 -79 0
-2 -77 -80 0
-3 -78 -81 0
-1 -79 -82 0
-2 -80 -83 0
-3 -81 -84 0
-1 -82 -85 0
-2 -83 -86 0
-3 -84 -87 0
-1 -85 -88 0
-2 -86 -89 0
-3 -87 -90 0
-1 -88 -91 0
-2 -89 -92 0
-3 -90 -93 0
-1 -91 -94 0
-2 -92 -95 0
-3 -93 -96 0
-1 -94 -97 0
-2 -95 -98 0
-3 -96 -99 0
-1 -97 -100 0
-2 -98 -101 0
-3 -99 -102 0
-1 -100 -103 0
-2 -101 -104 0
-3 -102 -105 0
-1 -103 -106 0
-2 -104 -107 0
-3 -105 -108 0
-1 -106 -109 0
-2 -107 -110 0
-3 -108 -111 0
-1 -109 -112 0
-2 -110 -113 0
-3 -111 -114 0
-1 -112 -115 0
-2 -113 -116 0
-3 -114 -117 0
-1 -115 -118 0
-2 -116 -119 0
-3 -117 -120 0
-1 -118 -121 0
-2 -119 -122 0
-3 -120 -123 0
-1 -121 -124 0
-2 -122 -125 0
-3 -123 -126 0
-1 -124 -127 0
-2 -125 -128 0
-3 -126 -129 0
-4 -7 -13 0
-5 -8 -14 0
-6 -9 -15 0
-4 -10 -16 0
-5 -11 -17 0
-6 -12 -18 0
-4 -13 -19 0
-5 -14 -20 0
-6 -15 -21 0
-4 -16 -22 0
-5 -17 -23 0
-6 -18 -24 0
-4 -19 -25 0
-5 -20 -26 0
-6 -21 -27 0
-4 -22 -28 0
-5 -23 -29 0
-6 -24 -30 0
-4 -25 -31 0
-5 -26 -32 0
-6 -27 -33 0
-4 -28 -34 0
-5 -29 -35 0
-6 -30 -36 0
-4 -31 -37 0
-5 -32 -38 0
-6 -33 -39 0
-4 -34 -40 0
-5 -35 -41 0
-6 -36 -42 0
-4 -37 -43 0
-5 -38 -44 0
-6 -39 -45 0
-4 -40 -46 0
-5 -41 -47 0
-6 -42 -48 0
-4 -43 -49 0
-5 -44 -50 0
-6 -45 -51 0
-4 -46 -52 0
-5 -47 -53 0
-6 -48 -54 0
-4 -49 -55 0
-5 -50 -56 0
-6 -51 -57 0
-4 -52 -58 0
-5 -53 -59 0
-6 -54 -60 0
-4 -55 -61 0
-5 -56 -62 0
-6 -57 -63 0
-4 -58 -64 0
-5 -59 -65 0
-6 -60 -66 0
-4 -61 -67 0
-5 -62 -68 0
-6 -63 -69 0
-4 -64 -70 0
-5 -65 -71 0
-6 -66 -72 0
-4 -67 -73 0
-5 -68 -74 0
-6 -69 -75 0
-4 -70 -76 0
-5 -71 -77 0
-6 -72 -78 0
-4 -73 -79 0
-5 -74 -80 0
-6 -75 -81 0
-4 -76 -82 0
-5 -77 -83 0
-6 -78 -84 0
-4 -79 -85 0
-5 -80 -86 0
-6 -81 -87 0
-4 -82 -88 0
-5 -83 -89 0
-6 -84 -90 0
-4 -85 -91 0
-5 -86 -92 0
-6 -87 -93 0
-4 -88 -94 0
-5 -89 -95 0
-6 -90 -96 0
-4 -91 -97 0
-5 -92 -98 0
-6 -93 -99 0
-4 -94 -100 0
-5 -95 -101 0
-6 -96 -102 0
-4 -97 -103 0
-5 -98 -104 0
-6 -99 -105 0
-4 -100 -106 0
-5 -101 -107 0
-6 -102 -108 0
-4 -103 -109 0
-5 -104 -110 0
-6 -105 -111 0
-4 -106 -112 0
-5 -107 -113 0
-6 -108 -114 0
-4 -109 -115 0
-5 -110 -116 0
-6 -111 -117 0
-4 -112 -118 0
-5 -113 -119 0
-6 -114 -120 0
-4 -115 -121 0
-5 -116 -122 0
-6 -117 -123 0
-4 -118 -124 0
-5 -119 -125 0
-6 -120 -126 0
-4 -121 -127 0
-5 -122 -128 0
-6 -123 -129 0
-7 -10 -19 0
-8 -11 -20 0
-9 -12 -21 0
-7 -13 -22 0
-8 -14 -23 0
-9 -15 -24 0
-7 -16 -25 0
-8 -17 -26 0
-9 -18 -27 0
-7 -19 -28 0
-8 -20 -29 0
-9 -21 -30 0
-7 -22 -31 0
-8 -23 -32 0
-9 -24 -33 0
-7 -25 -34 0
-8 -26 -35 0
-9 -27 -36 0
-7 -28 -37 0
-8 -29 -38 0
-9 -30 -39 0
-7 -31 -40 0
-8 -32 -41 0
-9 -33 -42 0
-7 -34 -43 0
-8 -35 -44 0
-9 -36 -45 0
-7 -37 -46 0
-8 -38 -47 0
-9 -39 -48 0
-7 -40 -49 0
-8 -41 -50 0
-9 -42 -51 0
-7 -43 -52 0
-8 -44 -53 0
-9 -45 -54 0
-7 -46 -55 0
-8 -47 -56 0
-9 -48 -57 0
-7 -49 -58 0
-8 -50 -59 0
-9 -51 -60 0
-7 -52 -61 0
-8 -53 -62 0
-9 -54 -63 0
-7 -55 -64 0
-8 -56 -65 0
-9 -57 -66 0
-7 -58 -67 0
-8 -59 -68 0
-9 -60 -69 0
-7 -61 -70 0
-8 -62 -71 0
-9 -63 -72 0
-7 -64 -73 0
-8 -65 -74 0
-9 -66 -75 0
-7 -67 -76 0
-8 -68 -77 0
-9 -69 -78 0
-7 -70 -79 0
-8 -71 -80 0
-9 -72 -81 0
-7 -73 -82 0
-8 -74 -83 0
-9 -75 -84 0
-7 -76 -85 0
-8 -77 -86 0
-9 -78 -87 0
-7 -79 -88 0
-8 -80 -89 0
-9 -81 -90 0
-7 -82 -91 0
-8 -83 -92 0
-9 -84 -93 0
-7 -85 -94 0
-8 -86 -95 0
-9 -87 -96 0
-7 -88 -97 0
-8 -89 -98 0
-9 -90 -99 0
-7 -91 -100 0
-8 -92 -101 0
-9 -93 -102 0
-7 -94 -103 0
-8 -95 -104 0
-9 -96 -105 0
-7 -97 -106 0
-8 -98 -107 0
-9 -99 -108 0
-7 -100 -109 0
-8 -101 -110 0
-9 -102 -111 0
-7 -103 -112 0
-8 -104 -113 0
-9 -105 -114 0
-7 -106 -115 0
-8 -107 -116 0
-9 -108 -117 0
-7 -109 -118 0
-8 -110 -119 0
-9 -111 -120 0
-7 -112 -121 0
-8 -113 -122 0
-9 -114 -123 0
-7 -115 -124 0
-8 -116 -125 0
-9 -117 -126 0
-7 -118 -127 0
-8 -119 -128 0
-9 -120 -129 0
-10 -13 -25 0
-11 -14 -26 0
-12 -15 -27 0
-10 -16 -28 0
-11 -17 -29 0
-12 -18 -30 0
-10 -19 -31 0
-11 -20 -32 0
-12 -21 -33 0
-10 -22 -34 0
-11 -23 -35 0
-12 -24 -36 0
-10 -25 -37 0
-11 -26 -38 0
-12 -27 -39 0
-10 -28 -40 0
-11 -29 -41 0
-12 -30 -42 0
-10 -31 -43 0
-11 -32 -44 0
-12 -33 -45 0
-10 -34 -46 0
-11 -35 -47 0
-12 -36 -48 0
-10 -37 -49 0
-11 -38 -50 0
-12 -39 -51 0
-10 -40 -52 0
-11 -41 -53 0
-12 -42 -54 0
-10 -43 -55 0
-11 -44 -56 0
-12 -45 -57 0
-10 -46 -58 0
-11 -47 -59 0
-12 -48 -60 0
-10 -49 -61 0
-11 -50 -62 0
-12 -51 -63 0
-10 -52 -64 0
-11 -53 -65 0
-12 -54 -66 0
-10 -55 -67 0
-11 -56 -68 0
-12 -57 -69 0
-10 -58 -70 0
-11 -59 -71 0
-12 -60 -72 0
-10 -61 -73 0
-11 -62 -74 0
-12 -63 -75 0
-10 -64 -76 0
-11 -65 -77 0
-12 -66 -78 0
-10 -67 -79 0
-11 -68 -80 0
-12 -69 -81 0
-10 -70 -82 0
-11 -71 -83 0
-12 -72 -84 0
-10 -73 -85 0
-11 -74 -86 0
-12 -75 -87 0
-10 -76 -88 0
-11 -77 -89 0
-12 -78 -90 0
-10 -79 -91 0
-11 -80 -92 0
-12 -81 -93 0
-10 -82 -94 0
-11 -83 -95 0
-12 -84 -96 0
-10 -85 -97 0
-11 -86 -98 0
-12 -87 -99 0
-10 -88 -100 0
-11 -89 -101 0
-12 -90 -102 0
-10 -91 -103 0
-11 -92 -104 0
-12 -93 -105 0
-10 -94 -106 0
-11 -95 -107 0
-12 -96 -108 0
-10 -97 -109 0
-11 -98 -110 0
-12 -99 -111 0
-10 -100 -112 0
-11 -101 -113 0
-12 -102 -114 0
-10 -103 -115 0
-11 -104 -116 0
-12 -105 -117 0
-10 -106 -118 0
-11 -107 -119 0
-12 -108 -120 0
-10 -109 -121 0
-11 -110 -122 0
-12 -111 -123 0
-10 -112 -124 0
-11 -113 -125 0
-12 -114 -126 0
-10 -115 -127 0
-11 -116 -128 0
-12 -117 -129 0
-13 -16 -31 0
-14 -17 -32 0
-15 -18 -33 0
-13 -19 -34 0
-14 -20 -35 0
-15 -21 -36 0
-13 -22 -37 0
-14 -23 -38 0
-15 -24 -39 0
-13 -25 -40 0
-14 -26 -41 0
-15 -27 -42 0
-13 -28 -43 0
-14 -29 -44 0
-15 -30 -45 0
-13 -31 -46 0
-14 -32 -47 0
-15 -33 -48 0
-13 -34 -49 0
-14 -35 -50 0
-15 -36 -51 0
-13 -37 -52 0
-14 -38 -53 0
-15 -39 -54 0
-13 -40 -55 0
-14 -41 -56 0
-15 -42 -57 0
-13 -43 -58 0
-14 -44 -59 0
-15 -45 -60 0
-13 -46 -61 0
-14 -47 -62 0
-15 -48 -63 0
-13 -49 -64 0
-14 -50 -65 0
-15 -51 -66 0
-13 -52 -67 0
-14 -53 -68 0
-15 -54 -69 0
-13 -55 -70 0
-14 -56 -71 0
-15 -57 -72 0
-13 -58 -73 0
-14 -59 -74 0
-15 -60 -75 0
-13 -61 -76 0
-14 -62 -77 0
-15 -63 -78 0
-13 -64 -79 0
-14 -65 -80 0
-15 -66 -81 0
-13 -67 -82 0
-14 -68 -83 0
-15 -69 -84 0
-13 -70 -85 0
-14 -71 -86 0
-15 -72 -87 0
-13 -73 -88 0
-14 -74 -89 0
-15 -75 -90 0
-13 -76 -91 0
-14 -77 -92 0
-15 -78 -93 0
-13 -79 -94 0
-14 -80 -95 0
-15 -81 -96 0
-13 -82 -97 0
-14 -83 -98 0
-15 -84 -99 0
-13 -85 -100 0
-14 -86 -101 0
-15 -87 -102 0
-13 -88 -103 0
-14 -89 -104 0
-15 -90 -105 0
-13 -91 -106 0
-14 -92 -107 0
-15 -93 -108 0
-13 -94 -109 0
-14 -95 -110 0
-15 -96 -111 0
-13 -97 -112 0
-14 -98 -113 0
-15 -99 -114 0
-13 -100 -115 0
-14 -101 -116 0
-15 -102 -117 0
-13 -103 -118 0
-14 -104 -119 0
-15 -105 -120 0
-13 -106 -121 0
-14 -107 -122 0
-15 -108 -123 0
-13 -109 -124 0
-14 -110 -125 0
-15 -111 -126 0
-13 -112 -127 0
-14 -113 -128 0
-15 -114 -129 0
-16 -19 -37 0
-17 -20 -38 0
-18 -21 -39 0
-16 -22 -40 0
-17 -23 -41 0
-18 -24 -42 0
-16 -25 -43 0
-17 -26 -44 0
-18 -27 -45 0
-16 -28 -46 0
-17 -29 -47 0
-18 -30 -48 0
-16 -31 -49 0
-17 -32 -50 0
-18 -33 -51 0
-16 -34 -52 0
-17 -35 -53 0
-18 -36 -54 0
-16 -37 -55 0
-17 -38 -56 0
-18 -39 -57 0
-16 -40 -58 0
-17 -41 -59 0
-18 -42 -60 0
-16 -43 -61 0
-17 -44 -62 0
-18 -45 -63 0
-16 -46 -64 0
-17 -47 -65 0
-18 -48 -66 0
-16 -49 -67 0
-17 -50 -68 0
-18 -51 -69 0
-16 -52 -70 0
-17 -53 -71 0
-18 -54 -72 0
-16 -55 -73 0
-17 -56 -74 0
-18 -57 -75 0
-16 -58 -76 0
-17 -59 -77 0
-18 -60 -78 0
-16 -61 -79 0
-17 -62 -80 0
-18 -63 -81 0
-16 -64 -82 0
-17 -65 -83 0
-18 -66 -84 0
-16 -67 -85 0
-17 -68 -86 0
-18 -69 -87 0
-16 -70 -88 0
-17 -71 -89 0
-18 -72 -90 0
-16 -73 -91 0
-17 -74 -92 0
-18 -75 -93 0
-16 -76 -94 0
-17 -77 -95 0
-18 -78 -96 0
-16 -79 -97 0
-17 -80 -98 0
-18 -81 -99 0
-16 -82 -100 0
-17 -83 -101 0
-18 -84 -102 0
-16 -85 -103 0
-17 -86 -104 0
-18 -87 -105 0
-16 -88 -106 0
-17 -89 -107 0
-18 -90 -108 0
-16 -91 -109 0
-17 -92 -110 0
-18 -93 -111 0
-16 -94 -112 0
-17 -95 -113 0
-18 -96 -114 0
-16 -97 -115 0
-17 -98 -116 0
-18 -99 -117 0
-16 -100 -118 0
-17 -101 -119 0
-18 -102 -120 0
-16 -103 -121 0
-17 -104 -122 0
-18 -105 -123 0
-16 -106 -124 0
-17 -107 -125 0
-18 -108 -126 0
-16 -109 -127 0
-17 -110 -128 0
-18 -111 -129 0
-19 -22 -43 0
-20 -23 -44 0
-21 -24 -45 0
-19 -25 -46 0
-20 -26 -47 0
-21 -27 -48 0
-19 -28 -49 0
-20 -29 -50 0
-21 -30 -51 0
-19 -31 -52 0
-20 -32 -53 0
-21 -33 -54 0
-19 -34 -55 0
-20 -35 -56 0
-21 -36 -57 0
-19 -37 -58 0
-20 -38 -59 0
-21 -39 -60 0
-19 -40 -61 0
-20 -41 -62 0
-21 -42 -63 0
-19 -43 -64 0
-20 -44 -65 0
-21 -45 -66 0
-19 -46 -67 0
-20 -47 -68 0
-21 -48 -69 0
-19 -49 -70 0
-20 -50 -71 0
-21 -51 -72 0
-19 -52 -73 0
-20 -53 -74 0
-21 -54 -75 0
-19 -55 -76 0
-20 -56 -77 0
-21 -57 -78 0
-19 -58 -79 0
-20 -59 -80 0
-21 -60 -81 0
-19 -61 -82 0
-20 -62 -83 0
-21 -63 -84 0
-19 -64 -85 0
-20 -65 -86 0
-21 -66 -87 0
-19 -67 -88 0
-20 -68 -89 0
-21 -69 -90 0
-19 -70 -91 0
-20 -71 -92 0
-21 -72 -93 0
-19 -73 -94 0
-20 -74 -95 0
-21 -75 -96 0
-19 -76 -97 0
-20 -77 -98 0
-21 -78 -99 0
-19 -79 -100 0
-20 -80 -101 0
-21 -81 -102 0
-19 -82 -103 0
-20 -83 -104 0
-21 -84 -105 0
-19 -85 -106 0
-20 -86 -107 0
-21 -87 -108 0
-19 -88 -109 0
-20 -89 -110 0
-21 -90 -111 0
-19 -91 -112 0
-20 -92 -113 0
-21 -93 -114 0
-19 -94 -115 0
-20 -95 -116 0
-21 -96 -117 0
-19 -97 -118 0
-20 -98 -119 0
-21 -99 -120 0
-19 -100 -121 0
-20 -101 -122 0
-21 -102 -123 0
-19 -103 -124 0
-20 -104 -125 0
-21 -105 -126 0
-19 -106 -127 0
-20 -107 -128 0
-21 -108 -129 0
-22 -25 -49 0
-23 -26 -50 0
-24 -27 -51 0
-22 -28 -52 0
-23 -29 -53 0
-24 -30 -54 0
-22 -31 -55 0
-23 -32 -56 0
-24 -33 -57 0
-22 -34 -58 0
-23 -35 -59 0
-24 -36 -60 0
-22 -37 -61 0
-23 -38 -62 0
-24 -39 -63 0
-22 -40 -64 0
-23 -41 -65 0
-24 -42 -66 0
-22 -43 -67 0
-23 -44 -68 0
-24 -45 -69 0
-22 -46 -70 0
-23 -47 -71 0
-24 -48 -72 0
-22 -49 -73 0
-23 -50 -74 0
-24 -51 -75 0
-22 -52 -76 0
-23 -53 -77 0
-24 -54 -78 0
-22 -55 -79 0
-23 -56 -80 0
-24 -57 -81 0
-22 -58 -82 0
-23 -59 -83 0
-24 -60 -84 0
-22 -61 -85 0
-23 -62 -86 0
-24 -63 -87 0
-22 -64 -88 0
-23 -65 -89 0
-24 -66 -90 0
-22 -67 -91 0
-23 -68 -92 0
-24 -69 -93 0
-22 -70 -94 0
-23 -71 -95 0
-24 -72 -96 0
-22 -73 -97 0
-23 -74 -98 0
-24 -75 -99 0
-22 -76 -100 0
-23 -77 -101 0
-24 -78 -102 0
-22 -79 -103 0
-23 -80 -104 0
-24 -81 -105 0
-22 -82 -106 0
-23 -83 -107 0
-24 -84 -108 0
-22 -85 -109 0
-23 -86 -110 0
-24 -87 -111 0
-22 -88 -112 0
-23 -89 -113 0
-24 -90 -114 0
-22 -91 -115 0
-23 -92 -116 0
-24 -93 -117 0
-22 -94 -118 0
-23 -95 -119 0
-24 -96 -120 0
-22 -97 -121 0
-23 -98 -122 0
-24 -99 -123 0
-22 -100 -124 0
-23 -101 -125 0
-24 -102 -126 0
-22 -103 -127 0
-23 -104 -128 0
-24 -105 -129 0
-25 -28 -55 0
-26 -29 -56 0
-27 -30 -57 0
-25 -31 -58 0
-26 -32 -59 0
-27 -33 -60 0
-25 -34 -61 0
-26 -35 -62 0
-27 -36 -63 0
-25 -37 -64 0
-26 -38 -65 0
-27 -39 -66 0
-25 -40 -67 0
-26 -41 -68 0
-27 -42 -69 0
-25 -43 -70 0
-26 -44 -71 0
-27 -45 -72 0
-25 -46 -73 0
-26 -47 -74 0
-27 -48 -75 0
-25 -49 -76 0
-26 -50 -77 0
-27 -51 -78 0
-25 -52 -79 0
-26 -53 -80 0
-27 -54 -81 0
-25 -55 -82 0
-26 -56 -83 0
-27 -57 -84 0
-25 -58 -85 0
-26 -59 -86 0
-27 -60 -87 0
-25 -61 -88 0
-26 -62 -89 0
-27 -63 -90 0
-25 -64 -91 0
-26 -65 -92 0
-27 -66 -93 0
-25 -67 -94 0
-26 -68 -95 0
-27 -69 -96 0
-25 -70 -97 0
-26 -71 -98 0
-27 -72 -99 0
-25 -73 -100 0
-26 -74 -101 0
-27 -75 -102 0
-25 -76 -103 0
-26 -77 -104 0
-27 -78 -105 0
-25 -79 -106 0
-26 -80 -107 0
-27 -81 -108 0
-25 -82 -109 0
-26 -83 -110 0
-27 -84 -111 0
-25 -85 -112 0
-26 -86 -113 0
-27 -87 -114 0
-25 -88 -115 0
-26 -89 -116 0
-27 -90 -117 0
-25 -91 -118 0
-26 -92 -119 0
-27 -93 -120 0
-25 -94 -121 0
-26 -95 -122 0
-27 -96 -123 0
-25 -97 -124 0
-26 -98 -125 0
-27 -99 -126 0
-25 -100 -127 0
-26 -101 -128 0
-27 -102 -129 0
-28 -31 -61 0
-29 -32 -62 0
-30 -33 -63 0
-28 -34 -64 0
-29 -35 -65 0
-30 -36 -66 0
-28 -37 -67 0
-29 -38 -68 0
-30 -39 -69 0
-28 -40 -70 0
-29 -41 -71 0
-30 -42 -72 0
-28 -43 -73 0
-29 -44 -74 0
-30 -45 -75 0
-28 -46 -76 0
-29 -47 -77 0
-30 -48 -78 0
-28 -49 -79 0
-29 -50 -80 0
-30 -51 -81 0
-28 -52 -82 0
-29 -53 -83 0
-30 -54 -84 0
-28 -55 -85 0
-29 -56 -86 0
-30 -57 -87 0
-28 -58 -88 0
-29 -59 -89 0
-30 -60 -90 0
-28 -61 -91 0
-29 -62 -92 0
-30 -63 -93 0
-28 -64 -94 0
-29 -65 -95 0
-30 -66 -96 0
-28 -67 -97 0
-29 -68 -98 0
-30 -69 -99 0
-28 -70 -100 0
-29 -71 -101 0
-30 -72 -102 0
-28 -73 -103 0
-29 -74 -104 0
-30 -75 -105 0
-28 -76 -106 0
-29 -77 -107 0
-30 -78 -108 0
-28 -79 -109 0
-29 -80 -110 0
-30 -81 -111 0
-28 -82 -112 0
-29 -83 -113 0
-30 -84 -114 0
-28 -85 -115 0
-29 -86 -116 0
-30 -87 -117 0
-28 -88 -118 0
-29 -89 -119 0
-30 -90 -120 0
-28 -91 -121 0
-29 -92 -122 0
-30 -93 -123 0
-28 -94 -124 0
-29 -95 -125 0
-30 -96 -126 0
-28 -97 -127 0
-29 -98 -128 0
-30 -99 -129 0
-31 -34 -67 0
-32 -35 -68 0
-33 -36 -69 0
-31 -37 -70 0
-32 -38 -71 0
-33 -39 -72 0
-31 -40 -73 0
-32 -41 -74 0
-33 -42 -75 0
-31 -43 -76 0
-32 -44 -77 0
-33 -45 -78 0
-31 -46 -79 0
-32 -47 -80 0
-33 -48 -81 0
-31 -49 -82 0
-32 -50 -83 0
-33 -51 -84 0
-31 -52 -85 0
-32 -53 -86 0
-33 -54 -87 0
-31 -55 -88 0
-32 -56 -89 0
-33 -57 -90 0
-31 -58 -91 0
-32 -59 -92 0
-33 -60 -93 0
-31 -61 -94 0
-32 -62 -95 0
-33 -63 -96 0
-31 -64 -97 0
-32 -65 -98 0
-33 -66 -99 0
-31 -67 -100 0
-32 -68 -101 0
-33 -69 -102 0
-31 -70 -103 0
-32 -71 -104 0
-33 -72 -105 0
-31 -73 -106 0
-32 -74 -107 0
-33 -75 -108 0
-31 -76 -109 0
-32 -77 -110 0
-33 -78 -111 0
-31 -79 -112 0
-32 -80 -113 0
-33 -81 -114 0
-31 -82 -115 0
-32 -83 -116 0
-33 -84 -117 0
-31 -85 -118 0
-32 -86 -119 0
-33 -87 -120 0
-31 -88 -121 0
-32 -89 -122 0
-33 -90 -123 0
-31 -91 -124 0
-32 -92 -125 0
-33 -93 -126 0
-31 -94 -127 0
-32 -95 -128 0
-33 -96 -129 0
-34 -37 -73 0
-35 -38 -74 0
-36 -39 -75 0
-34 -40 -76 0
-35 -41 -77 0
-36 -42 -78 0
-34 -43 -79 0
-35 -44 -80 0
-36 -45 -81 0
-34 -46 -82 0
-35 -47 -83 0
-36 -48 -84 0
-34 -49 -85 0
-35 -50 -86 0
-36 -51 -87 0
-34 -52 -88 0
-35 -53 -89 0
-36 -54 -90 0
-34 -55 -91 0
-35 -56 -92 0
-36 -57 -93 0
-34 -58 -94 0
-35 -59 -95 0
-36 -60 -96 0
-34 -61 -97 0
-35 -62 -98 0
-36 -63 -99 0
-34 -64 -100 0
-35 -65 -101 0
-36 -66 -102 0
-34 -67 -103 0
-35 -68 -104 0
-36 -69 -105 0
-34 -70 -106 0
-35 -71 -107 0
-36 -72 -108 0
-34 -73 -109 0
-35 -74 -110 0
-36 -75 -111 0
-34 -76 -112 0
-35 -77 -113 0
-36 -78 -114 0
-34 -79 -115 0
-35 -80 -116 0
-36 -81 -117 0
-34 -82 -118 0
-35 -83 -119 0
-36 -84 -120 0
-34 -85 -121 0
-35 -86 -122 0
-36 -87 -123 0
-34 -88 -124 0
-35 -89 -125 0
-36 -90 -126 0
-34 -91 -127 0
-35 -92 -128 0
-36 -93 -129 0
-37 -40 -79 0
-38 -41 -80 0
-39 -42 -81 0
-37 -43 -82 0
-38 -44 -83 0
-39 -45 -84 0
-37 -46 -85 0
-38 -47 -86 0
-39 -48 -87 0
-37 -49 -88 0
-38 -50 -89 0
-39 -51 -90 0
-37 -52 -91 0
-38 -53 -92 0
-39 -54 -93 0
-37 -55 -94 0
-38 -56 -95 0
-39 -57 -96 0
-37 -58 -97 0
-38 -59 -98 0
-39 -60 -99 0
-37 -61 -100 0
-38 -62 -101 0
-39 -63 -102 0
-37 -64 -103 0
-38 -65 -104 0
-39 -66 -105 0
-37 -67 -106 0
-38 -68 -107 0
-39 -69 -108 0
-37 -70 -109 0
-38 -71 -110 0
-39 -72 -111 0
-37 -73 -112 0
-38 -74 -113 0
-39 -75 -114 0
-37 -76 -115 0
-38 -77 -116 0
-39 -78 -117 0
-37 -79 -118 0
-38 -80 -119 0
-39 -81 -120 0
-37 -82 -121 0
-38 -83 -122 0
-39 -84 -123 0
-37 -85 -124 0
-38 -86 -125 0
-39 -87 -126 0
-37 -88 -127 0
-38 -89 -128 0
-39 -90 -129 0
-40 -43 -85 0
-41 -44 -86 0
-42 -45 -87 0
-40 -46 -88 0
-41 -47 -89 0
-42 -48 -90 0
-40 -49 -91 0
-41 -50 -92 0
-42 -51 -93 0
-40 -52 -94 0
-41 -53 -95 0
-42 -54 -96 0
-40 -55 -97 0
-41 -56 -98 0
-42 -57 -99 0
-40 -58 -100 0
-41 -59 -101 0
-42 -60 -102 0
-40 -61 -103 0
-41 -62 -104 0
-42 -63 -105 0
-40 -64 -106 0
-41 -65 -107 0
-42 -66 -108 0
-40 -67 -109 0
-41 -68 -110 0
-42 -69 -111 0
-40 -70 -112 0
-41 -71 -113 0
-42 -72 -114 0
-40 -73 -115 0
-41 -74 -116 0
-42 -75 -117 0
-40 -76 -118 0
-41 -77 -119 0
-42 -78 -120 0
-40 -79 -121 0
-41 -80 -122 0
-42 -81 -123 0
-40 -82 -124 0
-41 -83 -125 0
-42 -84 -126 0
-40 -85 -127 0
-41 -86 -128 0
-42 -87 -129 0
-43 -46 -91 0
-44 -47 -92 0
-45 -48 -93 0
-43 -49 -94 0
-44 -50 -95 0
-45 -51 -96 0
-43 -52 -97 0
-44 -53 -98 0
-45 -54 -99 0
-43 -55 -100 0
-44 -56 -101 0
-45 -57 -102 0
-43 -58 -103 0
-44 -59 -104 0
-45 -60 -105 0
-43 -61 -106 0
-44 -62 -107 0
-45 -63 -108 0
-43 -64 -109 0
-44 -65 -110 0
-45 -66 -111 0
-43 -67 -112 0
-44 -68 -113 0
-45 -69 -114 0
-43 -70 -115 0
-44 -71 -116 0
-45 -72 -117 0
-43 -73 -118 0
-44 -74 -119 0
-45 -75 -120 0
-43 -76 -121 0
-44 -77 -122 0
-45 -78 -123 0
-43 -79 -124 0
-44 -80 -125 0
-45 -81 -126 0
-43 -82 -127 0
-44 -83 -128 0
-45 -84 -129 0
-46 -49 -97 0
-47 -50 -98 0
-48 -51 -99 0
-46 -52 -100 0
-47 -53 -101 0
-48 -54 -102 0
-46 -55 -103 0
-47 -56 -104 0
-48 -57 -105 0
-46 -58 -106 0
-47 -59 -107 0
-48 -60 -108 0
-46 -61 -109 0
-47 -62 -110 0
-48 -63 -111 0
-46 -64 -112 0
-47 -65 -113 0
-48 -66 -114 0
-46 -67 -115 0
-47 -68 -116 0
-48 -69 -117 0
-46 -70 -118 0
-47 -71 -119 0
-48 -72 -120 0
-46 -73 -121 0
-47 -74 -122 0
-48 -75 -123 0
-46 -76 -124 0
-47 -77 -125 0
-48 -78 -126 0
-46 -79 -127 0
-47 -80 -128 0
-48 -81 -129 0
-49 -52 -103 0
-50 -53 -104 0
-51 -54 -105 0
-49 -55 -106 0
-50 -56 -107 0
-51 -57 -108 0
-49 -58 -109 0
-50 -59 -110 0
-51 -60 -111 0
-49 -61 -112 0
-50 -62 -113 0
-51 -63 -114 0
-49 -64 -115 0
-50 -65 -116 0
-51 -66 -117 0
-49 -67 -118 0
-50 -68 -119 0
-51 -69 -120 0
-49 -70 -121 0
-50 -71 -122 0
-51 -72 -123 0
-49 -73 -124 0
-50 -74 -125 0
-51 -75 -126 0
-49 -76 -127 0
-50 -77 -128 0
-51 -78 -129 0
-52 -55 -109 0
-53 -56 -110 0
-54 -57 -111 0
-52 -58 -112 0
-53 -59 -113 0
-54 -60 -114 0
-52 -61 -115 0
-53 -62 -116 0
-54 -63 -117 0
-52 -64 -118 0
-53 -65 -119 0
-54 -66 -120 0
-52 -67 -121 0
-53 -68 -122 0
-54 -69 -123 0
-52 -70 -124 0
-53 -71 -125 0
-54 -72 -126 0
-52 -73 -127 0
-53 -74 -128 0
-54 -75 -129 0
-55 -58 -115 0
-56 -59 -116 0
-57 -60 -117 0
-55 -61 -118 0
-56 -62 -119 0
-57 -63 -120 0
-55 -64 -121 0
-56 -65 -122 0
-57 -66 -123 0
-55 -67 -124 0
-56 -68 -125 0
-57 -69 -126 0
-55 -70 -127 0
-56 -71 -128 0
-57 -72 -129 0
-58 -61 -121 0
-59 -62 -122 0
-60 -63 -123 0
-58 -64 -124 0
-59 -65 -125 0
-60 -66 -126 0
-58 -67 -127 0
-59 -68 -128 0
-60 -69 -129 0
-61 -64 -127 0
-62 -65 -128 0
-63 -66 -129 0
1 2 3 0
4 5 6 0
7 8 9 0
10 11 12 0
13 14 15 0
16 17 18 0
19 20 21 0
22 23 24 0
25 26 27 0
28 29 30 0
31 32 33 0
34 35 36 0
37 38 39 0
40 41 42 0
43 44 45 0
46 47 48 0
49 50 51 0
52 53 54 0
55 56 57 0
58 59 60 0
61 62 63 0
64 65 66 0
67 68 69 0
70 71 72 0
73 74 75 0
76 77 78 0
79 80 81 0
82 83 84 0
85 86 87 0
88 89 90 0
91 92 93 0
94 95 96 0
97 98 99 0
100 101 102 0
103 104 105 0
106 107 108 0
109 110 111 0
112 113 114 0
115 116 117 0
118 119 120 0
121 122 123 0
124 125 126 0
127 128 129 0
-1 -2 0
-1 -3 0
-2 -3 0
-4 -5 0
-4 -6 0
-5 -6 0
-7 -8 0
-7 -9 0
-8 -9 0
-10 -11 0
-10 -12 0
-11 -12 0
-13 -14 0
-13 -15 0
-14 -15 0
-16 -17 0
-16 -18 0
-17 -18 0
-19 -20 0
-19 -21 0
-20 -21 0
-22 -23 0
-22 -24 0
-23 -24 0
-25 -26 0
-25 -27 0
-26 -27 0
-28 -29 0
-28 -30 0
-29 -30 0
-31 -32 0
-31 -33 0
-32 -33 0
-34 -35 0
-34 -36 0
-35 -36 0
-37 -38 0
-37 -39 0
-38 -39 0
-40 -41 0
-40 -42 0
-41 -42 0
-43 -44 0
-43 -45 0
-44 -45 0
-46 -47 0
-46 -48 0
-47 -48 0
-49 -50 0
-49 -51 0
-50 -51 0
-52 -53 0
-52 -54 0
-53 -54 0
-55 -56 0
-55 -57 0
-56 -57 0
-58 -59 0
-58 -60 0
-59 -60 0
-61 -62 0
-61 -63 0
-62 -63 0
-64 -65 0
-64 -66 0
-65 -66 0
-67 -68 0
-67 -69 0
-68 -69 0
-70 -71 0
-70 -72 0
-71 -72 0
-73 -74 0
-73 -75 0
-74 -75 0
-76 -77 0
-76 -78 0
-77 -78 0
-79 -80 0
-79 -81 0
-80 -81 0
-82 -83 0
-82 -84 0
-83 -84 0
-85 -86 0
-85 -87 0
-86 -87 0
-88 -89 0
-88 -90 0
-89 -90 0
-91 -92 0
-91 -93 0
-92 -93 0
-94 -95 0
-94 -96 0
-95 -96 0
-97 -98 0
-97 -99 0
-98 -99 0
-100 -101 0
-100 -102 0
-101 -102 0
-103 -104 0
-103 -105 0
-104 -105 0
-106 -107 0
-106 -108 0
-107 -108 0
-109 -110 0
-109 -111 0
-110 -111 0
-112 -113 0
-112 -114 0
-113 -114 0
-115 -116 0
-115 -117 0
-116 -117 0
-118 -119 0
-118 -120 0
-119 -120 0
-121 -122 0
-121 -123 0
-122 -123 0
-124 -125 0
-124 -126 0
-125 -126 0
-127 -128 0
-127 -129 0
-128 -129 0
